p cnf 7230 16
5769 5925 0
-3238 -5665 -5923 0
-5549 -5765 -5921 0
-5757 -5759 -5919 0
3238 -5924 0
5549 -5922 0
5757 -5920 0
-5769 5926 0
-5925 -5926 0
5923 5924 0
5921 5922 0
5919 5920 0
5769 -5928 0
5665 -5924 0
5765 -5922 0
5759 -5920 0
